x05m05e0t1tp5_02
3190
3190
3190
3190
3190
3190
3294
3315
3315
3315
3315
3315
3315
3315
3315
3315
3315
3315
3315
3315
3315
3315
3315
3315
3315
3315
3315
3315
3315
3315
3315
3315
3315
3315
3315
3315
3315
3315
3315
3315
3315
3315
3315
3315
3315
3315
3315
3315
3439
3439
3439
3439
3439
3439
3439
3439
3439
3439
3439
3439
3439
3439
3439
3439
3439
3439
3439
3439
3439
3439
3439
3439
3439
3439
3439
3439
3439
3524
3524
3524
3524
3524
3524
3524
3524
3524
3524
3524
3524
3524
3524
3524
3524
3524
3524
3524
3524
3524
3524
3524
3524
3524
3524
3524
3524
3524
3524
3524
3524
3524
3524
3524
3524
3524
3524
3524
3524
3524
3524
3524
3524
3524
3524
3524
3524
3524
3524
3524
3524
3524
3524
3524
3524
3524
3524
3524
3524
3524
3524
3524
3524
3524
3524
3524
3524
3524
3524
3524
3524
3524
3524
3524
3524
3524
3524
3524
3524
3524
3524
3524
3524
3524
3524
3524
3558
3558
3558
3558
3558
3558
3558
3558
3558
3558
3558
3558
3558
3558
3558
3558
3558
3558
3558
3558
3558
3558
3558
3558
3558
3558
3558
3558
3558
3558
3558
3558
3558
3558
3558
3558
3558
3558
3558
3558
3558
3558
3558
3558
3558
3558
3558
3558
3558
3558
3558
3558
3558
3558
3558
3558
3558
3558
3558
3558
3558
3558
3558
3558
3558
3558
3558
3558
3558
3558
3558
3558
3558
3558
3558
3558
3558
3558
3558
3558
3558
3558
3558
3558
3558
3558
3558
3558
3558
3558
3558
3558
3558
3558
3558
3558
3558
3558
3558
3558
3558
3558
3558
3558
3558
3558
3558
3558
3558
3558
3558
3558
3558
3558
3558
3558
3558
3558
3558
3558
3558
3558
3558
3558
3558
3558
3558
3558
3558
3558
3558
3558
3558
3558
3558
3558
3558
3558
3558
3558
3558
3558
3558
3558
3558
3558
3558
3558
3558
3558
3558
3558
3558
3558
3558
3558
3558
3558
3558
3558
3558
3558
3558
3558
3558
3558
3558
3558
3558
3558
3558
3558
3558
3558
3558
3558
3558
3558
3558
3558
3558
3558
3558
3558
3558
3558
3558
3558
3558
3558
3558
3558
3558
3558
3558
3558
3558
3558
3558
3558
3558
3558
3558
3558
3558
3558
3558
3558
3558
3558
3558
3558
3558
3558
3558
3558
3558
3558
3558
3558
3558
3558
3558
3558
3558
3558
3558
3558
3558
3558
3558
3558
3558
3558
3558
3558
3558
3558
3558
3558
3558
3558
3558
3558
3558
3558
3558
3558
3558
3558
3558
3558
3558
3558
3558
3558
3558
3558
3558
3558
3558
3558
3558
3558
3558
3558
3558
3558
3558
3558
3558
3558
3558
3558
3558
3558
3558
3558
3558
3558
3558
3558
3558
3558
3558
3558
3558
3558
3558
3558
3558
3558
3558
3558
3558
3558
3558
3558
3558
3558
3558
3558
3558
3558
3558
3558
3558
3558
3558
3558
3558
3558
3558
3558
3558
3558
3558
3558
3558
3558
3558
3558
3558
3558
3558
3558
3558
3558
3558
3558
3558
3558
3558
3558
3558
3558
3558
3558
3558
3558
3558
3558
3558
3558
3558
3558
3558
3558
3558
3558
3558
3558
3558
3558
3558
3558
3558
3558
3558
3558
3558
3558
3558
3558
3558
3558
3558
3558
3558
3558
3558
3558
3558
3558
3558
3558
3558
3558
3558
3558
3558
3558
3558
3558
3558
3558
3558
3558
3558
3558
3558
3558
3558
3558
3558
3558
3558
3558
3558
3558
3558
3558
3558
3558
3558
3558
3558
3558
3558
3558
3558
3558
3558
3558
3558
3558
3558
3558
3558
3558
3558
3558
3558
3558
3558
3558
3558
3558
3558
3558
3558
3558
3558
3558
3558
3558
3558
3558
3558
3558
3558
3558
3558
3558
3558
3558
3558
3558
3558
3558
3558
3558
3558
3558
3558
3558
3558
3558
3558
3558
3558
3558
3558
3558
3558
3558
3558
3558
3558
3558
3558
3558
3558
3558
3558
3558
3558
3558
3558
3558
3558
3558
3558
3558
3558
3558
3558
3558
3558
3558
3558
3558
3558
3558
3558
3558
3558
3558
3558
3558
3558
3558
3558
3558
3558
3558
3558
3558
3558
3558
3558
3558
3558
3558
3558
3558
3558
3558
3558
3558
3558
3558
3558
3558
3558
3558
3558
3558
3558
3558
3558
3558
3558
3558
3558
3558
3558
3558
3558
3558
3558
3558
3558
3558
3558
3558
3558
3558
3558
3558
3558
3558
3558
3558
3558
3558
3558
3558
3558
3558
3558
3558
3558
3558
3558
3558
3558
3558
3558
3558
3558
3558
3558
3558
3558
3558
3558
3558
3558
3558
3558
3558
3558
3558
3558
3558
3558
3558
3558
3558
3558
3558
3558
3558
3558
3558
3558
3558
3558
3558
3558
3558
3558
3558
3558
3558
3558
3558
3558
3558
3558
3558
3558
3558
3558
3558
3558
3558
3558
3558
3558
3558
3558
3558
3558
3558
3558
3558
3558
3558
3558
3558
3558
3558
3558
3558
3558
3558
3558
3558
3558
3558
3558
3558
3558
3558
3558
3558
3558
3558
3558
3558
3558
3558
3558
3558
3558
3558
3558
3558
3558
3558
3558
3558
3558
3558
3558
3558
3558
3558
3558
3558
3558
3558
3558
3558
3558
3558
3558
3558
3558
3558
3558
3558
3558
3558
3558
3558
3558
3558
3558
3558
3558
3558
3558
3558
3558
3558
3558
3558
3558
3558
3558
3558
3558
3558
3558
3558
3558
3558
3558
3558
3558
3558
3558
3558
3558
3558
3558
3558
3558
3558
3558
3558
3558
3558
3558
3558
3558
3558
3558
3558
3558
3558
3558
3558
3558
3558
3558
3558
3558
3558
3558
3558
3558
3558
3558
3558
3558
3558
3558
3558
3558
3558
3558
3558
3558
3558
3558
3558
3558
3558
3558
3558
3558
3558
3558
3558
3558
3558
3558
3558
3558
3558
3558
3558
3558
3558
3558
3558
3558
3558
3558
3558
3558
3558
3558
3558
3558
3558
3558
3558
3558
3558
3558
3558
3558
3558
3558
3558
3558
3558
3558
3558
3558
3558
3558
3558
3558
3558
3558
3558
3558
3558
3558
3558
3558
3558
3558
3558
3558
3558
3558
3558
3558
3558
3558
3558
3558
3558
3558
3558
3558
3558
3558
3558
